-970 -1027 0
-28 -1009 1 0
61 -1021 -53 970 0
-1024 -1027 0
-57 -1027 0
-1027 0
1 0
-58 0
970 0
115 0
-913 0
-172 0
-967 0
55 0
-868 0
-112 0
-922 0
-103 0
-982 0
1024 0
10 0
1015 0
70 0
-157 0
-193 0
-67 0
-202 0
-877 0
-247 0
-307 0
-778 0
-823 0
-832 0
-148 0
-958 0
-127 0
-262 0
-937 0
-13 0
979 0
46 0
25 0
250 0
925 0
295 0
304 0
340 0
349 0
364 0
385 0
394 0
409 0
430 0
439 0
484 0
499 0
544 0
541 0
586 0
595 0
631 0
640 0
676 0
685 0
700 0
721 0
730 0
745 0
790 0
-787 0
-733 0
-742 0
-238 0
-802 0
-847 0
-283 0
-292 0
-418 0
-427 0
-22 0
-82 0
-217 0
-442 0
-757 0
-892 0
-463 0
-472 0
-487 0
-532 0
-124 0
-214 0
-223 0
-259 0
0
